Reading model...
...model read.
creating competitive generators file...
...competitive generators recorded.
Loading data...
.. real-time data read.
Compiling instance...
...instance created.
Creating Offer Mitigation (model will solve as dispatch if TRUE)...
NOTE: storage offers will not be mitigated
...storage offer mitigation file created
Converting model to MPEC...
...converted
NOTE: initial MIP solve with only storage competitive to get feasible solution
Solving...

Welcome to IBM(R) ILOG(R) CPLEX(R) Interactive Optimizer 12.9.0.0
  with Simplex, Mixed Integer & Barrier Optimizers
5725-A06 5725-A29 5724-Y48 5724-Y49 5724-Y54 5724-Y55 5655-Y21
Copyright IBM Corp. 1988, 2019.  All Rights Reserved.

Type 'help' for a list of available commands.
Type 'help' followed by a command name for more
information on commands.

CPLEX> Logfile 'cplex.log' closed.
Logfile 'C:\Users\llavin\Desktop\test85\logs\tmpigz4cv7v.cplex.log' open.
CPLEX> New value for parallel optimization mode: -1
CPLEX> New value for mixed integer optimality gap tolerance: 0.001
CPLEX> New value for deterministic time limit in ticks: 100000
CPLEX> Problem 'C:\Users\llavin\Desktop\test85\logs\tmpbpyd5sdu.pyomo.lp' read.
Read time = 0.50 sec. (27.84 ticks)
CPLEX> Problem name         : C:\Users\llavin\Desktop\test85\logs\tmpbpyd5sdu.pyomo.lp
Objective sense      : Maximize
Variables            :  107779  [Nneg: 1,  Box: 44054,  Free: 8928,
                                 Binary: 54796]
Objective nonzeros   :   17426
Linear constraints   :  246995  [Less: 82866,  Greater: 118424,  Equal: 45705]
  Nonzeros           :  580829
  RHS nonzeros       :  134639

Variables            : Min LB: -5000.000        Max UB: 1000000.       
Objective nonzeros   : Min   : 0.1944444        Max   : 2500.000       
Linear constraints   :
  Nonzeros           : Min   : 0.1944444        Max   : 1000000.       
  RHS nonzeros       : Min   : 0.1944444        Max   : 1000000.       
CPLEX> CPXPARAM_Parallel                                -1
CPXPARAM_DetTimeLimit                            100000
CPXPARAM_MIP_Tolerances_MIPGap                   0.001
Tried aggregator 3 times.
MIP Presolve eliminated 181747 rows and 41468 columns.
MIP Presolve added 6048 rows and 0 columns.
MIP Presolve modified 48870 coefficients.
Aggregator did 25790 substitutions.
Reduced MIP has 45506 rows, 38889 columns, and 126154 nonzeros.
Reduced MIP has 15287 binaries, 0 generals, 0 SOSs, and 0 indicators.
Presolve time = 0.58 sec. (332.35 ticks)
Probing fixed 720 vars, tightened 7045 bounds.
Probing time = 0.34 sec. (13.22 ticks)
Tried aggregator 2 times.
MIP Presolve eliminated 1634 rows and 1442 columns.
MIP Presolve modified 5487 coefficients.
Aggregator did 85 substitutions.
Reduced MIP has 43787 rows, 37362 columns, and 121189 nonzeros.
Reduced MIP has 14566 binaries, 0 generals, 0 SOSs, and 0 indicators.
Presolve time = 0.22 sec. (208.33 ticks)
Probing fixed 1 vars, tightened 327 bounds.
Probing time = 0.47 sec. (16.35 ticks)
Clique table members: 79632.
MIP emphasis: balance optimality and feasibility.
MIP search method: dynamic search.
Parallel mode: opportunistic, using up to 32 threads.
Root relaxation solution time = 0.84 sec. (1707.64 ticks)

        Nodes                                         Cuts/
   Node  Left     Objective  IInf  Best Integer    Best Bound    ItCnt     Gap

      0     0        0.0000   141                      0.0000     8837         
*     0+    0                            0.0000        0.0000             0.00%

Root node processing (before b&c):
  Real time             =    3.64 sec. (3094.75 ticks)
Parallel b&c, 32 threads:
  Real time             =    0.00 sec. (0.00 ticks)
  Sync time (average)   =    0.00 sec.
  Wait time (average)   =    0.00 sec.
                          ------------
Total (root+branch&cut) =    3.64 sec. (3094.75 ticks)

Solution pool: 1 solution saved.

MIP - Integer optimal, tolerance (0.001/1e-06):  Objective =  1.4315446606e-09
Current MIP best bound =  3.4338825117e-09 (gap = 2.00234e-09, 0.00%)
Solution time =    3.66 sec.  Iterations = 8837  Nodes = 0 (1)
Deterministic time = 3095.06 ticks  (846.57 ticks/sec)

CPLEX> Incumbent solution written to file 'C:\Users\llavin\Desktop\test85\logs\tmp5irfvzdi.cplex.sol'.
CPLEX> NOTE: no warmstart specified for MIP iteration, default behavior is true
NOTE: resolving with all competitive generators using storage-only solution to warmstart
Solving...

Welcome to IBM(R) ILOG(R) CPLEX(R) Interactive Optimizer 12.9.0.0
  with Simplex, Mixed Integer & Barrier Optimizers
5725-A06 5725-A29 5724-Y48 5724-Y49 5724-Y54 5724-Y55 5655-Y21
Copyright IBM Corp. 1988, 2019.  All Rights Reserved.

Type 'help' for a list of available commands.
Type 'help' followed by a command name for more
information on commands.

CPLEX> Logfile 'cplex.log' closed.
Logfile 'C:\Users\llavin\Desktop\test85\logs\tmpvvubx9eo.cplex.log' open.
CPLEX> New value for parallel optimization mode: -1
CPLEX> New value for mixed integer optimality gap tolerance: 0.001
CPLEX> New value for deterministic time limit in ticks: 100000
CPLEX> Problem 'C:\Users\llavin\Desktop\test85\logs\tmptxgcmwlu.pyomo.lp' read.
Read time = 0.51 sec. (27.89 ticks)
CPLEX> MIP start file 'C:\Users\llavin\Desktop\test85\logs\tmp2lcqw0wh.cplex.mst' read.
CPLEX> Problem name         : C:\Users\llavin\Desktop\test85\logs\tmptxgcmwlu.pyomo.lp
Objective sense      : Maximize
Variables            :  109219  [Nneg: 1,  Box: 45494,  Free: 8928,
                                 Binary: 54796]
Objective nonzeros   :   18818
Linear constraints   :  246995  [Less: 82866,  Greater: 118424,  Equal: 45705]
  Nonzeros           :  580829
  RHS nonzeros       :  134639

Variables            : Min LB: -5000.000        Max UB: 1000000.       
Objective nonzeros   : Min   : 0.1944444        Max   : 2500.000       
Linear constraints   :
  Nonzeros           : Min   : 0.1944444        Max   : 1000000.       
  RHS nonzeros       : Min   : 0.1944444        Max   : 1000000.       
CPLEX> CPXPARAM_Parallel                                -1
CPXPARAM_DetTimeLimit                            100000
CPXPARAM_MIP_Tolerances_MIPGap                   0.001
1 of 1 MIP starts provided solutions.
MIP start 'm1' defined initial solution with objective 0.0000.
Tried aggregator 3 times.
MIP Presolve eliminated 181747 rows and 42908 columns.
MIP Presolve added 6048 rows and 0 columns.
MIP Presolve modified 48870 coefficients.
Aggregator did 25790 substitutions.
Reduced MIP has 45506 rows, 38889 columns, and 126154 nonzeros.
Reduced MIP has 15287 binaries, 0 generals, 0 SOSs, and 0 indicators.
Presolve time = 0.58 sec. (333.05 ticks)
Probing fixed 720 vars, tightened 7045 bounds.
Probing time = 0.34 sec. (13.22 ticks)
Tried aggregator 2 times.
MIP Presolve eliminated 1634 rows and 1442 columns.
MIP Presolve modified 5487 coefficients.
Aggregator did 85 substitutions.
Reduced MIP has 43787 rows, 37362 columns, and 121189 nonzeros.
Reduced MIP has 14566 binaries, 0 generals, 0 SOSs, and 0 indicators.
Presolve time = 0.24 sec. (208.34 ticks)
Probing fixed 1 vars, tightened 324 bounds.
Probing time = 0.50 sec. (16.50 ticks)
Clique table members: 79649.
MIP emphasis: balance optimality and feasibility.
MIP search method: dynamic search.
Parallel mode: opportunistic, using up to 32 threads.
Root relaxation solution time = 1.03 sec. (1817.57 ticks)

        Nodes                                         Cuts/
   Node  Left     Objective  IInf  Best Integer    Best Bound    ItCnt     Gap

*     0+    0                            0.0000   1.35160e+07              --- 
      0     0    45757.8111   673        0.0000    45757.8111    11455     --- 
      0     0    44932.4038   895        0.0000     Cuts: 558    12596     --- 
      0     0    44186.8230   905        0.0000     Cuts: 342    13260     --- 
      0     0    44122.0729   932        0.0000      Cuts: 94    13425     --- 
      0     0    44121.1783   925        0.0000   Flowcuts: 5    13435     --- 
      0     0    44120.1690   927        0.0000   Flowcuts: 7    13447     --- 
      0     2    44120.1690   927        0.0000  Impl Bds: 24    13447     --- 
Elapsed time = 11.53 sec. (5882.28 ticks, tree = 0.02 MB, solutions = 1)
    235    59    42970.2245   873        0.0000    43835.6486    14212     --- 
    503    85    42852.4217   809        0.0000    43835.6486    14613     --- 
    762   180    42406.0729   714        0.0000    43835.6486    16217     --- 
   1149   613    42167.7723   643        0.0000    43835.6486    25284     --- 
   1593   861    39954.6158   538        0.0000    43835.6486    30395     --- 
   1900  1646    37056.9285   588        0.0000    43835.6486    48046     --- 
   2205  1864    36400.9130   441        0.0000    43835.6486    54150     --- 
   2608  1810    36793.6666   536        0.0000    43835.6486    52809     --- 
   2991  1934    35625.9561   396        0.0000    43835.6486    54925     --- 
   4166  2996    34729.1434   315        0.0000    43835.6486    74061     --- 
Elapsed time = 31.49 sec. (8988.03 ticks, tree = 157.97 MB, solutions = 1)
   5120  4101    19716.9950   168        0.0000    43835.6486    95418     --- 
   5811  4411    infeasible             -0.0000    24148.7302   161330     --- 
   6125    13    13017.7711   449        0.0000     2801.8174   167338     --- 
   6291    38     1427.9382   116        0.0000     2801.8174   177938     --- 
   6417    40        cutoff              0.0000     2801.8174   178278     --- 
   6555     9    21480.4186   614        0.0000     2801.8174   161500     --- 
   6594    40       57.9572    50        0.0000     2801.8174   178359     --- 
   6616     5    24157.6019   623        0.0000     2801.8174   160818     --- 
   6622    10    11866.2058   416        0.0000     2801.8174   168014     --- 
   6633    13      206.3906   188        0.0000     2801.8174   181206     --- 
Elapsed time = 81.91 sec. (35483.95 ticks, tree = 0.39 MB, solutions = 2)

GUB cover cuts applied:  14
Cover cuts applied:  5
Implied bound cuts applied:  8
Flow cuts applied:  646
Mixed integer rounding cuts applied:  112
Lift and project cuts applied:  21
Gomory fractional cuts applied:  4

Root node processing (before b&c):
  Real time             =    7.47 sec. (5749.14 ticks)
Parallel b&c, 32 threads:
  Real time             =   74.73 sec. (29903.06 ticks)
  Sync time (average)   =   14.97 sec.
  Wait time (average)   =    0.30 sec.
                          ------------
Total (root+branch&cut) =   82.20 sec. (35652.20 ticks)

Solution pool: 2 solutions saved.

MIP - Integer optimal solution:  Objective =  2.0872903406e-09
Solution time =   82.22 sec.  Iterations = 188800  Nodes = 6641
Deterministic time = 35652.51 ticks  (433.63 ticks/sec)

CPLEX> Incumbent solution written to file 'C:\Users\llavin\Desktop\test85\logs\tmp7_zbezzl.cplex.sol'.
CPLEX> Exporting results... 
